# Cost: 389

# Tail Head Net
61 31 1
62 61 1
525 1425 1
555 525 1
585 555 1
615 585 1
645 615 1
675 645 1
705 675 1
735 705 1
765 735 1
795 765 1
825 795 1
855 825 1
885 855 1
962 62 1
992 962 1
1022 992 1
1052 1022 1
1053 1052 1
1054 1053 1
1055 1054 1
1056 1055 1
1057 1056 1
1087 1057 1
1088 1087 1
1118 1088 1
1119 1118 1
1120 1119 1
1121 1120 1
1122 1121 1
1123 1122 1
1153 1123 1
1154 1153 1
1155 1154 1
1155 1156 1
1156 1157 1
1157 1158 1
1158 1159 1
1159 1160 1
1160 1161 1
1161 1162 1
1162 1163 1
1163 1164 1
1164 1165 1
1165 1166 1
1166 1167 1
1167 1168 1
1168 1169 1
1169 1170 1
1170 270 1
1185 1155 1
1215 1185 1
1245 1215 1
1275 1245 1
1305 1275 1
1335 1305 1
1365 1335 1
1395 1365 1
1425 1395 1
241 242 2
242 1142 2
372 402 2
402 432 2
432 462 2
462 463 2
463 493 2
493 494 2
493 523 2
494 495 2
495 496 2
496 497 2
497 498 2
498 499 2
499 500 2
500 501 2
501 502 2
502 503 2
503 504 2
504 505 2
505 506 2
506 507 2
507 508 2
508 509 2
509 510 2
523 553 2
553 583 2
583 613 2
613 643 2
643 673 2
673 703 2
703 733 2
733 763 2
763 793 2
793 823 2
823 853 2
853 883 2
1142 1143 2
1143 1144 2
1144 1145 2
1145 1146 2
1146 1176 2
1176 1177 2
1177 1178 2
1178 1179 2
1179 1180 2
1180 1181 2
1181 1182 2
1182 1212 2
1212 1242 2
1242 1272 2
1272 372 2
884 1784 3
1773 873 3
1774 1773 3
1775 1774 3
1776 1775 3
1777 1776 3
1778 1777 3
1779 1778 3
1780 1779 3
1781 1780 3
1782 1781 3
1783 1782 3
1784 1783 3
1784 1785 3
1785 1786 3
1786 1787 3
1787 1788 3
1788 1789 3
1789 1790 3
1790 1791 3
1791 1792 3
1792 1793 3
1793 1794 3
1794 894 3
10 11 4
11 12 4
12 13 4
13 14 4
14 15 4
15 16 4
16 17 4
17 18 4
18 19 4
19 20 4
20 21 4
21 22 4
22 23 4
23 24 4
24 25 4
123 1023 4
153 123 4
183 153 4
213 183 4
243 213 4
272 273 4
273 243 4
302 272 4
332 302 4
362 332 4
392 362 4
421 422 4
422 392 4
451 421 4
481 451 4
511 481 4
541 511 4
908 909 4
909 910 4
910 10 4
934 935 4
935 936 4
936 937 4
937 938 4
938 908 4
964 934 4
993 994 4
994 964 4
1023 993 4
570 540 5
600 570 5
630 600 5
660 630 5
690 660 5
720 690 5
750 720 5
780 750 5
807 837 5
808 807 5
809 808 5
810 780 5
810 809 5
835 865 5
836 835 5
837 836 5
863 893 5
864 863 5
865 864 5
888 887 5
889 888 5
890 889 5
891 890 5
892 891 5
893 892 5
34 4 6
64 34 6
94 64 6
124 94 6
154 124 6
184 154 6
214 184 6
244 214 6
274 244 6
304 274 6
334 304 6
364 334 6
394 364 6
424 394 6
454 424 6
484 454 6
514 484 6
544 514 6
572 571 6
573 572 6
574 544 6
574 573 6
608 1508 6
638 608 6
668 638 6
698 668 6
699 698 6
729 699 6
759 729 6
789 759 6
819 789 6
849 819 6
879 849 6
1474 574 6
1475 1474 6
1505 1475 6
1506 1505 6
1507 1506 6
1508 1507 6
37 7 7
37 38 7
38 39 7
39 40 7
40 41 7
41 42 7
42 43 7
43 44 7
44 45 7
45 46 7
46 47 7
47 48 7
48 49 7
49 50 7
50 51 7
51 52 7
52 53 7
53 54 7
54 55 7
55 56 7
56 26 7
67 37 7
97 67 7
127 97 7
157 127 7
185 186 7
186 187 7
187 157 7
215 185 7
245 215 7
275 245 7
305 275 7
335 305 7
365 335 7
395 365 7
425 395 7
455 425 7
485 455 7
515 485 7
545 515 7
575 545 7
604 605 7
605 575 7
632 633 7
633 634 7
634 604 7
661 662 7
662 632 7
3 33 8
33 63 8
63 93 8
92 122 8
93 92 8
122 152 8
152 182 8
181 211 8
182 181 8
601 1501 9
1201 301 9
1231 1201 9
1261 1231 9
1291 1261 9
1321 1291 9
1351 1321 9
1381 1351 9
1411 1381 9
1441 1411 9
1471 1441 9
1501 1471 9
841 842 10
842 843 10
843 844 10
844 845 10
845 1745 10
897 898 10
898 899 10
899 900 10
1745 1746 10
1746 1747 10
1747 1748 10
1748 1749 10
1749 1750 10
1750 1751 10
1751 1752 10
1752 1753 10
1753 1754 10
1754 1755 10
1755 1756 10
1756 1757 10
1757 1758 10
1758 1759 10
1759 1760 10
1760 1761 10
1761 1762 10
1762 1763 10
1763 1764 10
1764 1765 10
1765 1766 10
1766 1796 10
1796 1797 10
1797 897 10
29 59 11
59 89 11
89 119 11
119 149 11
149 179 11
179 209 11
209 239 11
239 269 11
269 299 11
299 300 11
300 330 11
330 360 11
360 390 11
390 420 11
420 450 11
121 151 12
151 1051 12
1051 1081 12
1081 1111 12
1111 1141 12
1141 1171 12
1171 1172 12
1172 1202 12
1202 1232 12
1232 1262 12
1262 1292 12
1292 1322 12
1322 1352 12
1352 1382 12
1382 1412 12
1412 1442 12
1442 1472 12
1472 1502 12
1502 1532 12
1532 1562 12
1562 1592 12
1591 1621 12
1592 1591 12
1621 1651 12
1651 1681 12
1681 1711 12
1711 1741 12
1741 1771 12
1771 871 12
